p edge 64 512
e 1 45
e 1 20
e 1 38
e 1 16
e 1 53
e 1 18
e 1 32
e 1 8
e 1 7
e 1 34
e 1 39
e 1 55
e 1 35
e 1 48
e 1 56
e 1 64
e 1 47
e 2 27
e 2 30
e 2 3
e 2 6
e 2 34
e 2 45
e 2 22
e 2 54
e 2 43
e 2 49
e 2 41
e 2 14
e 2 55
e 2 44
e 2 37
e 2 52
e 3 55
e 3 25
e 3 51
e 3 6
e 3 34
e 3 45
e 3 18
e 3 32
e 3 39
e 3 63
e 3 59
e 3 28
e 3 12
e 3 35
e 3 24
e 3 15
e 3 22
e 3 48
e 4 34
e 4 63
e 4 8
e 4 52
e 4 55
e 4 43
e 4 48
e 4 49
e 4 18
e 4 53
e 4 47
e 4 31
e 4 16
e 4 6
e 4 17
e 4 36
e 5 60
e 5 8
e 5 22
e 5 44
e 5 37
e 5 15
e 5 12
e 5 11
e 5 18
e 5 7
e 5 28
e 5 36
e 6 50
e 6 49
e 6 22
e 6 51
e 6 29
e 6 61
e 6 43
e 6 48
e 6 63
e 6 24
e 6 7
e 6 46
e 6 40
e 6 57
e 7 10
e 7 37
e 7 43
e 7 63
e 7 47
e 7 21
e 7 9
e 7 27
e 7 50
e 7 48
e 7 60
e 7 26
e 7 24
e 7 46
e 7 64
e 7 12
e 7 29
e 7 41
e 8 41
e 8 45
e 8 35
e 8 30
e 8 26
e 8 12
e 8 10
e 8 37
e 8 23
e 8 48
e 8 27
e 8 21
e 8 34
e 8 17
e 8 20
e 8 25
e 8 38
e 9 61
e 9 37
e 9 18
e 9 63
e 9 27
e 9 20
e 9 40
e 9 33
e 9 21
e 9 64
e 9 30
e 9 56
e 9 14
e 9 51
e 9 49
e 10 43
e 10 59
e 10 19
e 10 17
e 10 56
e 10 36
e 10 27
e 10 22
e 10 52
e 10 34
e 10 40
e 10 23
e 10 18
e 11 63
e 11 16
e 11 61
e 11 39
e 11 29
e 11 58
e 11 14
e 11 52
e 11 64
e 12 29
e 12 40
e 12 21
e 12 61
e 12 24
e 12 34
e 12 20
e 13 24
e 13 45
e 13 54
e 13 15
e 13 32
e 13 22
e 13 50
e 13 25
e 13 53
e 13 37
e 13 28
e 14 17
e 14 43
e 14 32
e 14 63
e 14 42
e 14 20
e 14 39
e 14 64
e 14 37
e 14 29
e 14 15
e 15 62
e 15 21
e 15 40
e 15 25
e 15 23
e 15 39
e 15 29
e 15 48
e 15 44
e 15 64
e 16 50
e 16 60
e 16 53
e 16 41
e 16 35
e 16 24
e 16 48
e 16 57
e 16 23
e 16 45
e 16 49
e 16 27
e 16 58
e 16 55
e 16 28
e 16 37
e 16 64
e 16 51
e 16 19
e 16 18
e 16 52
e 17 53
e 17 26
e 17 52
e 17 40
e 17 48
e 17 22
e 17 19
e 17 43
e 17 29
e 17 55
e 17 31
e 17 61
e 17 59
e 17 62
e 17 64
e 18 50
e 18 44
e 18 56
e 18 28
e 18 55
e 18 43
e 18 38
e 18 53
e 18 30
e 18 61
e 19 60
e 19 30
e 19 31
e 19 38
e 19 42
e 19 27
e 19 46
e 19 25
e 19 59
e 19 34
e 19 56
e 19 57
e 19 28
e 19 52
e 19 51
e 19 53
e 19 21
e 20 52
e 20 47
e 20 63
e 20 46
e 20 39
e 20 45
e 20 60
e 20 41
e 20 38
e 20 62
e 20 48
e 21 57
e 21 61
e 21 22
e 21 63
e 21 56
e 21 30
e 21 64
e 21 45
e 21 26
e 21 46
e 21 41
e 21 62
e 21 39
e 21 40
e 22 41
e 22 55
e 22 42
e 22 61
e 22 52
e 22 43
e 22 53
e 22 40
e 22 29
e 22 44
e 23 34
e 23 53
e 23 24
e 23 46
e 23 43
e 23 40
e 23 25
e 23 48
e 23 63
e 24 62
e 24 53
e 24 57
e 24 46
e 24 49
e 24 56
e 25 45
e 25 56
e 25 50
e 25 62
e 25 38
e 25 26
e 25 40
e 26 54
e 26 48
e 26 60
e 26 39
e 26 50
e 26 42
e 26 40
e 26 56
e 26 55
e 26 33
e 26 63
e 26 49
e 26 36
e 27 47
e 27 64
e 27 31
e 27 55
e 27 38
e 27 49
e 27 44
e 27 35
e 27 51
e 27 50
e 27 57
e 28 37
e 28 56
e 28 58
e 28 30
e 28 60
e 28 63
e 28 46
e 29 61
e 29 33
e 29 30
e 29 37
e 29 32
e 29 52
e 29 63
e 30 41
e 30 45
e 30 42
e 30 48
e 30 51
e 30 52
e 30 61
e 30 50
e 31 33
e 31 45
e 31 53
e 31 63
e 32 43
e 32 57
e 32 63
e 32 62
e 32 35
e 32 52
e 32 59
e 32 34
e 33 35
e 33 34
e 33 64
e 33 59
e 33 41
e 33 48
e 33 47
e 33 58
e 34 61
e 34 58
e 34 64
e 34 55
e 34 49
e 34 44
e 34 48
e 34 50
e 34 52
e 34 51
e 34 62
e 35 57
e 35 54
e 35 49
e 35 64
e 35 42
e 35 37
e 35 38
e 36 63
e 36 58
e 36 37
e 36 48
e 36 53
e 37 60
e 37 53
e 37 58
e 37 61
e 37 55
e 37 40
e 37 54
e 37 48
e 37 50
e 37 62
e 37 43
e 38 42
e 38 49
e 38 53
e 38 48
e 38 60
e 38 54
e 38 50
e 38 52
e 38 63
e 39 46
e 39 53
e 39 40
e 39 63
e 40 48
e 40 62
e 40 63
e 40 42
e 40 56
e 40 55
e 40 45
e 40 49
e 40 43
e 41 49
e 41 44
e 41 46
e 41 62
e 41 58
e 41 59
e 41 54
e 42 60
e 42 59
e 42 48
e 42 52
e 42 53
e 42 58
e 42 62
e 43 63
e 43 52
e 44 62
e 45 52
e 45 48
e 45 59
e 45 46
e 46 55
e 46 63
e 47 62
e 47 59
e 48 49
e 48 54
e 48 57
e 48 51
e 48 62
e 49 52
e 49 57
e 49 50
e 49 60
e 50 61
e 50 62
e 50 59
e 50 51
e 51 63
e 51 55
e 51 64
e 51 58
e 52 62
e 52 57
e 52 60
e 53 60
e 53 58
e 53 54
e 53 63
e 54 57
e 54 62
e 54 63
e 55 63
e 55 60
e 55 56
e 56 63
e 56 60
e 56 58
e 56 64
e 57 60
e 58 62
e 58 59
e 61 62
e 62 64
e 62 63
e 63 64
